200
1000
619
616
616
613
613
612
607
607
604
601
590
585
579
578
569
566
561
561
559
557
551
551
550
546
546
543
535
534
528
524
520
519
507
505
505
504
503
502
502
501
500
494
492
486
484
481
476
473
473
470
470
468
467
465
456
455
450
445
442
442
442
437
435
433
432
432
431
426
421
420
417
407
407
403
398
396
393
390
385
380
380
379
375
373
371
368
367
357
355
351
346
346
345
342
339
339
338
334
332
332
331
326
325
317
316
310
307
302
300
300
298
296
295
293
292
288
286
285
279
271
271
270
267
265
260
259
256
252
245
241
240
231
230
223
222
222
220
216
215
213
210
205
202
197
197
194
189
185
184
181
180
174
173
170
162
161
159
158
150
139
135
134
133
131
127
126
126
123
121
121
119
117
112
108
101
98
98
91
89
87
87
86
83
82
78
78
67
56
55
55
54
54
52
45
43
41
41
40
39
35
